(set-logic QF_S)
(declare-fun var0 () String)
(declare-fun var1 () String)
(declare-fun var2 () String)
(declare-fun var3 () String)
(declare-fun var4 () String)
(declare-fun var5 () String)
(declare-fun var6 () String)
(declare-fun var7 () String)
(declare-fun var8 () String)
(declare-fun var9 () String)
(declare-fun var10 () String)
(declare-fun var11 () String)
(declare-fun var12 () String)
(declare-fun var13 () String)
(declare-fun var14 () String)
(declare-fun var15 () String)
(declare-fun var16 () String)
(declare-fun var17 () String)
(declare-fun var18 () String)
(declare-fun var19 () String)
(declare-fun var20 () String)
(declare-fun var21 () String)
(declare-fun var22 () String)
(declare-fun var23 () String)
(declare-fun var24 () String)
(declare-fun var25 () String)
(declare-fun var26 () String)
(declare-fun var27 () String)
(declare-fun var28 () String)
(declare-fun var29 () String)
(declare-fun var30 () String)
(declare-fun var31 () String)
(declare-fun var32 () String)
(declare-fun var33 () String)
(declare-fun var34 () String)
(declare-fun var35 () String)
(declare-fun var36 () String)
(declare-fun var37 () String)
(declare-fun var38 () String)
(declare-fun var39 () String)
(declare-fun var40 () String)
(declare-fun var41 () String)
(declare-fun var42 () String)
(declare-fun var43 () String)
(declare-fun var44 () String)
(declare-fun var45 () String)
(declare-fun var46 () String)
(declare-fun var47 () String)
(declare-fun var48 () String)
(declare-fun var49 () String)
(declare-fun var50 () String)
(declare-fun var51 () String)
(declare-fun var52 () String)
(declare-fun var53 () String)
(declare-fun var54 () String)
(declare-fun var55 () String)
(declare-fun var56 () String)
(declare-fun var57 () String)
(declare-fun var58 () String)
(declare-fun var59 () String)
(declare-fun var60 () String)
(assert (= var0 (Concat var1 var2)))
(assert (= var2 (Concat var3 var4)))
(assert (= var4 (Concat var5 var6)))
(assert (= var6 (Concat var7 var8)))
(assert (= var8 (Concat var9 var10)))
(assert (= var10 (Concat var11 var12)))
(assert (= var12 (Concat var13 var14)))
(assert (= var14 (Concat var15 var16)))
(assert (= var16 (Concat var17 var18)))
(assert (= var18 (Concat var19 var20)))
(assert (= var20 (Concat var21 var22)))
(assert (= var22 (Concat var23 var24)))
(assert (= var24 (Concat var25 var26)))
(assert (= var26 (Concat var27 var28)))
(assert (= var28 (Concat var29 var30)))
(assert (= var30 (Concat var31 var32)))
(assert (= var32 (Concat var33 var34)))
(assert (= var34 (Concat var35 var36)))
(assert (= var36 (Concat var37 var38)))
(assert (= var38 (Concat var39 var40)))
(assert (= var40 (Concat var41 var42)))
(assert (= var42 (Concat var43 var44)))
(assert (= var44 (Concat var45 var46)))
(assert (= var46 (Concat var47 var48)))
(assert (= var48 (Concat var49 var50)))
(assert (= var50 (Concat var51 var52)))
(assert (= var52 (Concat var53 var54)))
(assert (= var54 (Concat var55 var56)))
(assert (= var56 (Concat var57 var58)))
(assert (= var58 (Concat var59 var60)))
(assert (= var0 "solution"))
(assert (= "o" (CharAt var10 750)))
(assert (= "." (CharAt var40 934)))
(assert (= "R" (CharAt var2 689)))
(assert (= "b" (CharAt var49 843)))
(assert (= "2" (CharAt var41 820)))
(assert (= "8" (CharAt var38 678)))
(assert (= "i" (CharAt var54 889)))
(assert (= "t" (CharAt var21 122)))
(assert (= "Y" (CharAt var0 674)))
(assert (= "-" (CharAt var39 656)))
(assert (= "l" (CharAt var54 137)))
(assert (= "i" (CharAt var27 700)))
(assert (= "6" (CharAt var6 351)))
(assert (= "c" (CharAt var10 906)))
(assert (= "a" (CharAt var48 639)))
(assert (= "W" (CharAt var28 59)))
(assert (= "Y" (CharAt var38 363)))
(assert (= "!" (CharAt var4 539)))
(assert (= "0" (CharAt var55 902)))
(assert (= "4" (CharAt var25 112)))
(assert (= "Y" (CharAt var2 773)))
(assert (= "b" (CharAt var25 687)))
(assert (= "D" (CharAt var10 900)))
(assert (= "v" (CharAt var31 443)))
(assert (= "\"" (CharAt var0 289)))
(assert (= "F" (CharAt var60 359)))
(assert (= "d" (CharAt var58 868)))
(assert (= "`" (CharAt var33 957)))
(assert (= "2" (CharAt var36 373)))
(assert (= "b" (CharAt var17 95)))
(assert (= "Y" (CharAt var20 161)))
(assert (= "U" (CharAt var51 27)))
(assert (= "k" (CharAt var56 560)))
(assert (= "(" (CharAt var17 316)))
(assert (= "A" (CharAt var29 511)))
(assert (= "+" (CharAt var34 51)))
(assert (= "y" (CharAt var46 44)))
(assert (= "4" (CharAt var9 681)))
(assert (= "^" (CharAt var52 553)))
(assert (= "X" (CharAt var33 246)))
(assert (= "A" (CharAt var14 821)))
(assert (= "x" (CharAt var14 496)))
(assert (= "6" (CharAt var0 167)))
(assert (= "6" (CharAt var16 538)))
(assert (= "3" (CharAt var37 470)))
(assert (= "F" (CharAt var27 817)))
(assert (= "#" (CharAt var51 386)))
(assert (= "J" (CharAt var15 488)))
(assert (= "0" (CharAt var4 161)))
(assert (= "+" (CharAt var8 865)))
(assert (= "+" (CharAt var54 829)))
(assert (= "`" (CharAt var58 141)))
(assert (= "9" (CharAt var23 973)))
(assert (= "%" (CharAt var48 766)))
(assert (= "9" (CharAt var45 624)))
(assert (= "V" (CharAt var3 932)))
(assert (= "&" (CharAt var21 734)))
(assert (= "y" (CharAt var37 873)))
(assert (= "7" (CharAt var27 715)))
(assert (= "Z" (CharAt var37 806)))
(assert (= "e" (CharAt var56 739)))
(assert (= "-" (CharAt var24 691)))
(assert (= "@" (CharAt var3 101)))
(assert (= "k" (CharAt var58 586)))
(assert (= "@" (CharAt var31 461)))
(assert (= "-" (CharAt var24 572)))
(assert (= ")" (CharAt var59 776)))
(assert (= "h" (CharAt var54 92)))
(assert (= "(" (CharAt var53 337)))
(assert (= "z" (CharAt var15 767)))
(assert (= "x" (CharAt var48 400)))
(assert (= "," (CharAt var32 848)))
(assert (= "a" (CharAt var48 842)))
(assert (= "o" (CharAt var48 830)))
(assert (= "U" (CharAt var47 631)))
(assert (= "-" (CharAt var28 804)))
(assert (= "H" (CharAt var35 913)))
(assert (= "N" (CharAt var35 961)))
(assert (= "l" (CharAt var22 495)))
(assert (= "M" (CharAt var24 123)))
(assert (= ")" (CharAt var57 382)))
(assert (= "c" (CharAt var26 610)))
(assert (= "L" (CharAt var55 541)))
(assert (= "L" (CharAt var43 240)))
(assert (= "!" (CharAt var20 676)))
(assert (= "a" (CharAt var48 677)))
(assert (= "!" (CharAt var4 326)))
(assert (= "1" (CharAt var2 812)))
(assert (= "C" (CharAt var60 891)))
(assert (= "y" (CharAt var37 674)))
(assert (= "m" (CharAt var46 929)))
(assert (= "L" (CharAt var37 691)))
(assert (= "!" (CharAt var58 224)))
(assert (= "B" (CharAt var56 137)))
(assert (= "P" (CharAt var15 623)))
(assert (= "K" (CharAt var57 971)))
(assert (= "k" (CharAt var53 649)))
(assert (= "r" (CharAt var37 55)))
(assert (= "f" (CharAt var45 691)))
(assert (= "\\" (CharAt var3 896)))
(assert (= "+" (CharAt var19 32)))
(assert (= "@" (CharAt var11 252)))
(assert (= "z" (CharAt var43 935)))
(assert (= "h" (CharAt var44 223)))
(assert (= "&" (CharAt var47 927)))
(assert (= "v" (CharAt var41 438)))
(assert (= "J" (CharAt var47 746)))
(assert (= "," (CharAt var25 260)))
(assert (= "V" (CharAt var7 926)))
(assert (= "J" (CharAt var9 770)))
(assert (= "T" (CharAt var41 514)))
(assert (= "%" (CharAt var55 706)))
(assert (= "E" (CharAt var34 136)))
(assert (= "k" (CharAt var15 874)))
(assert (= "*" (CharAt var55 506)))
(assert (= "9" (CharAt var33 449)))
(assert (= "e" (CharAt var14 11)))
(assert (= "S" (CharAt var7 170)))
(assert (= "^" (CharAt var13 636)))
(assert (= "5" (CharAt var41 596)))
(assert (= "R" (CharAt var34 117)))
(assert (= "P" (CharAt var43 914)))
(assert (= "E" (CharAt var52 167)))
(assert (= "B" (CharAt var25 192)))
(assert (= "M" (CharAt var5 786)))
(assert (= "F" (CharAt var26 878)))
(assert (= "1" (CharAt var25 764)))
(assert (= "{" (CharAt var44 761)))
(assert (= "K" (CharAt var10 214)))
(assert (= "4" (CharAt var19 344)))
(assert (= "7" (CharAt var53 660)))
(assert (= "]" (CharAt var0 802)))
(assert (= "4" (CharAt var35 94)))
(assert (= "B" (CharAt var52 661)))
(assert (= "(" (CharAt var24 794)))
(assert (= "," (CharAt var38 909)))
(assert (= "N" (CharAt var43 549)))
(assert (= "5" (CharAt var60 799)))
(assert (= "k" (CharAt var15 192)))
(assert (= "Z" (CharAt var7 495)))
(assert (= "." (CharAt var9 557)))
(assert (= "V" (CharAt var47 521)))
(assert (= "F" (CharAt var49 216)))
(assert (= "A" (CharAt var3 234)))
(assert (= "c" (CharAt var55 349)))
(assert (= "T" (CharAt var9 751)))
(assert (= "W" (CharAt var38 943)))
(assert (= "o" (CharAt var39 431)))
(assert (= "A" (CharAt var51 79)))
(assert (= "v" (CharAt var26 249)))
(assert (= "d" (CharAt var13 401)))
(assert (= "n" (CharAt var4 840)))
(assert (= "5" (CharAt var58 691)))
(assert (= "'" (CharAt var36 665)))
(assert (= "I" (CharAt var51 999)))
(assert (= "(" (CharAt var14 649)))
(assert (= "}" (CharAt var51 804)))
(assert (= "2" (CharAt var3 861)))
(assert (= "w" (CharAt var41 125)))
(assert (= "|" (CharAt var48 44)))
(assert (= "|" (CharAt var51 483)))
(assert (= "%" (CharAt var22 837)))
(assert (= "@" (CharAt var27 244)))
(assert (= "?" (CharAt var2 217)))
(assert (= "Y" (CharAt var48 388)))
(assert (= "1" (CharAt var11 98)))
(assert (= "O" (CharAt var1 475)))
(assert (= "W" (CharAt var7 162)))
(assert (= "|" (CharAt var19 738)))
(assert (= "#" (CharAt var43 759)))
(assert (= "t" (CharAt var17 762)))
(assert (= "A" (CharAt var45 264)))
(assert (= ";" (CharAt var29 458)))
(assert (= "[" (CharAt var36 293)))
(assert (= "A" (CharAt var46 643)))
(assert (= "+" (CharAt var22 328)))
(assert (= "9" (CharAt var57 517)))
(assert (= "&" (CharAt var19 678)))
(assert (= "\\" (CharAt var39 389)))
(assert (= "x" (CharAt var13 622)))
(assert (= "8" (CharAt var42 957)))
(assert (= "P" (CharAt var15 386)))
(assert (= "A" (CharAt var31 368)))
(assert (= "m" (CharAt var43 687)))
(assert (= "O" (CharAt var19 429)))
(assert (= "M" (CharAt var45 996)))
(assert (= "<" (CharAt var12 180)))
(assert (= "n" (CharAt var4 625)))
(assert (= "o" (CharAt var30 600)))
(assert (= "r" (CharAt var38 182)))
(assert (= "p" (CharAt var38 200)))
(assert (= "P" (CharAt var15 897)))
(assert (= "X" (CharAt var44 739)))
(assert (= "X" (CharAt var50 731)))
(assert (= "\\" (CharAt var7 511)))
(assert (= "s" (CharAt var46 979)))
(assert (= "." (CharAt var4 551)))
(assert (= "M" (CharAt var21 941)))
(assert (= "A" (CharAt var51 494)))
(assert (= "7" (CharAt var47 248)))
(assert (= "g" (CharAt var46 120)))
(assert (= "m" (CharAt var38 276)))
(assert (= "s" (CharAt var53 482)))
(assert (= "B" (CharAt var11 875)))
(assert (= "9" (CharAt var28 251)))
(assert (= "3" (CharAt var0 668)))
(assert (= "F" (CharAt var13 354)))
(assert (= "z" (CharAt var15 619)))
(assert (= "K" (CharAt var11 593)))
(assert (= "7" (CharAt var15 510)))
(assert (= "%" (CharAt var30 329)))
(assert (= "e" (CharAt var34 878)))
(assert (= "'" (CharAt var22 659)))
(assert (= "d" (CharAt var58 625)))
(assert (= "6" (CharAt var53 96)))
(assert (= "H" (CharAt var20 129)))
(assert (= ":" (CharAt var58 786)))
(assert (= "L" (CharAt var39 738)))
(assert (= "[" (CharAt var52 160)))
(assert (= "j" (CharAt var33 48)))
(assert (= ":" (CharAt var24 921)))
(assert (= "," (CharAt var35 47)))
(assert (= ";" (CharAt var6 333)))
(assert (= "3" (CharAt var38 104)))
(assert (= "&" (CharAt var28 611)))
(assert (= "y" (CharAt var29 218)))
(assert (= "D" (CharAt var54 602)))
(assert (= "Q" (CharAt var36 885)))
(assert (= "?" (CharAt var27 946)))
(assert (= "u" (CharAt var57 7)))
(assert (= "/" (CharAt var55 413)))
(assert (= "@" (CharAt var36 675)))
(assert (= "I" (CharAt var2 34)))
(assert (= "J" (CharAt var48 519)))
(assert (= "M" (CharAt var54 433)))
(assert (= "D" (CharAt var29 182)))
(assert (= "[" (CharAt var12 244)))
(assert (= "J" (CharAt var35 320)))
(assert (= "i" (CharAt var25 329)))
(assert (= "$" (CharAt var42 277)))
(assert (= "^" (CharAt var19 796)))
(assert (= "N" (CharAt var18 638)))
(assert (= "X" (CharAt var24 551)))
(assert (= ";" (CharAt var46 118)))
(assert (= "?" (CharAt var2 380)))
(assert (= "6" (CharAt var30 406)))
(assert (= "6" (CharAt var39 554)))
(assert (= "i" (CharAt var49 593)))
(assert (= "}" (CharAt var50 491)))
(assert (= "E" (CharAt var6 733)))
(assert (= "`" (CharAt var10 184)))
(assert (= "p" (CharAt var8 746)))
(assert (= "B" (CharAt var24 89)))
(assert (= "6" (CharAt var57 860)))
(assert (= "?" (CharAt var10 491)))
(assert (= "," (CharAt var58 891)))
(assert (= "E" (CharAt var1 232)))
(assert (= "O" (CharAt var56 68)))
(assert (= "x" (CharAt var29 974)))
(assert (= "S" (CharAt var37 517)))
(assert (= "\\" (CharAt var40 435)))
(assert (= "i" (CharAt var36 198)))
(assert (= "D" (CharAt var56 18)))
(assert (= ";" (CharAt var14 698)))
(assert (= "o" (CharAt var43 311)))
(assert (= "V" (CharAt var59 306)))
(assert (= "g" (CharAt var1 802)))
(assert (= "q" (CharAt var49 483)))
(assert (= "i" (CharAt var27 679)))
(assert (= "W" (CharAt var12 998)))
(assert (= "X" (CharAt var35 451)))
(assert (= "p" (CharAt var30 85)))
(assert (= "N" (CharAt var7 920)))
(assert (= "&" (CharAt var15 270)))
(assert (= "V" (CharAt var33 473)))
(assert (= "l" (CharAt var24 255)))
(assert (= "/" (CharAt var32 401)))
(assert (= ";" (CharAt var47 958)))
(assert (= "Y" (CharAt var56 569)))
(assert (= "w" (CharAt var1 579)))
(assert (= ")" (CharAt var49 670)))
(assert (= "!" (CharAt var5 302)))
(assert (= "w" (CharAt var13 533)))
(assert (= "2" (CharAt var29 51)))
(assert (= "7" (CharAt var32 263)))
(assert (= "\\" (CharAt var39 245)))
(assert (= "n" (CharAt var17 352)))
(assert (= "g" (CharAt var48 536)))
(assert (= "t" (CharAt var23 892)))
(assert (= "@" (CharAt var34 43)))
(assert (= "!" (CharAt var36 813)))
(assert (= ">" (CharAt var24 574)))
(assert (= "-" (CharAt var60 505)))
(assert (= ";" (CharAt var34 48)))
(assert (= "k" (CharAt var41 124)))
(assert (= "-" (CharAt var50 773)))
(assert (= "W" (CharAt var51 387)))
(assert (= "M" (CharAt var23 576)))
(assert (= "^" (CharAt var45 581)))
(assert (= "r" (CharAt var12 253)))
(assert (= "?" (CharAt var5 164)))
(assert (= "6" (CharAt var17 591)))
(assert (= "'" (CharAt var44 638)))
(assert (= "b" (CharAt var11 435)))
(assert (= "L" (CharAt var43 919)))
(assert (= "^" (CharAt var23 940)))
(assert (= "z" (CharAt var1 285)))
(assert (= "7" (CharAt var31 403)))
(assert (= "R" (CharAt var53 29)))
(assert (= "J" (CharAt var34 402)))
(assert (= "w" (CharAt var30 449)))
(assert (= "5" (CharAt var3 794)))
(assert (= "u" (CharAt var20 218)))
(assert (= "e" (CharAt var38 809)))
(assert (= "z" (CharAt var28 693)))
(assert (= "<" (CharAt var34 84)))
(assert (= "v" (CharAt var5 161)))
(assert (= "4" (CharAt var60 796)))
(assert (= "A" (CharAt var20 948)))
(assert (= "B" (CharAt var41 981)))
(assert (= "8" (CharAt var24 329)))
(assert (= "Q" (CharAt var33 345)))
(assert (= "`" (CharAt var33 879)))
(assert (= "_" (CharAt var27 455)))
(assert (= "t" (CharAt var44 87)))
(assert (= "q" (CharAt var44 499)))
(assert (= "k" (CharAt var9 686)))
(assert (= "]" (CharAt var40 781)))
(assert (= "A" (CharAt var23 540)))
(assert (= "K" (CharAt var12 387)))
(assert (= "K" (CharAt var36 504)))
(assert (= "L" (CharAt var33 593)))
(assert (= "6" (CharAt var35 185)))
(assert (= "4" (CharAt var20 719)))
(assert (= "h" (CharAt var32 191)))
(assert (= "r" (CharAt var16 56)))
(assert (= "y" (CharAt var37 717)))
(assert (= "$" (CharAt var32 148)))
(assert (= "I" (CharAt var0 159)))
(assert (= "j" (CharAt var28 390)))
(assert (= "L" (CharAt var55 972)))
(assert (= "," (CharAt var16 492)))
(assert (= "a" (CharAt var54 444)))
(assert (= "M" (CharAt var6 473)))
(assert (= "<" (CharAt var52 54)))
(assert (= "w" (CharAt var48 104)))
(assert (= "r" (CharAt var7 128)))
(assert (= "b" (CharAt var45 109)))
(assert (= "]" (CharAt var32 424)))
(assert (= "D" (CharAt var9 853)))
(assert (= "H" (CharAt var60 791)))
(assert (= "%" (CharAt var20 684)))
(assert (= "V" (CharAt var14 787)))
(assert (= "U" (CharAt var41 235)))
(assert (= "x" (CharAt var13 458)))
(assert (= "/" (CharAt var38 940)))
(assert (= "{" (CharAt var5 893)))
(assert (= "X" (CharAt var51 720)))
(assert (= "F" (CharAt var47 369)))
(assert (= "u" (CharAt var27 653)))
(assert (= "o" (CharAt var30 290)))
(assert (= "e" (CharAt var3 636)))
(assert (= "P" (CharAt var33 796)))
(assert (= "r" (CharAt var44 784)))
(assert (= "r" (CharAt var51 887)))
(assert (= "Z" (CharAt var47 314)))
(assert (= "^" (CharAt var13 203)))
(assert (= "*" (CharAt var30 237)))
(assert (= "g" (CharAt var19 345)))
(assert (= "B" (CharAt var56 987)))
(assert (= "`" (CharAt var54 469)))
(assert (= "b" (CharAt var21 905)))
(assert (= "R" (CharAt var52 495)))
(assert (= "V" (CharAt var55 962)))
(assert (= "k" (CharAt var33 26)))
(assert (= "?" (CharAt var52 838)))
(assert (= "." (CharAt var20 2)))
(assert (= "3" (CharAt var50 584)))
(assert (= "K" (CharAt var5 888)))
(assert (= "." (CharAt var32 337)))
(assert (= "." (CharAt var43 38)))
(assert (= "/" (CharAt var9 451)))
(assert (= "d" (CharAt var35 665)))
(assert (= "4" (CharAt var22 177)))
(assert (= "B" (CharAt var36 402)))
(assert (= "M" (CharAt var41 440)))
(assert (= "P" (CharAt var5 702)))
(assert (= "o" (CharAt var37 5)))
(assert (= "4" (CharAt var3 1000)))
(assert (= "T" (CharAt var4 735)))
(assert (= ")" (CharAt var10 208)))
(assert (= "q" (CharAt var52 622)))
(assert (= "d" (CharAt var55 373)))
(assert (= "f" (CharAt var33 916)))
(assert (= "s" (CharAt var38 580)))
(assert (= "(" (CharAt var57 648)))
(assert (= "g" (CharAt var23 684)))
(assert (= "&" (CharAt var53 879)))
(assert (= "@" (CharAt var59 102)))
(assert (= "W" (CharAt var31 957)))
(assert (= "-" (CharAt var4 347)))
(assert (= "=" (CharAt var22 54)))
(assert (= "=" (CharAt var60 524)))
(assert (= "S" (CharAt var7 299)))
(assert (= "x" (CharAt var17 824)))
(assert (= "l" (CharAt var20 910)))
(assert (= "*" (CharAt var5 220)))
(assert (= "L" (CharAt var11 995)))
(assert (= "w" (CharAt var33 122)))
(assert (= "h" (CharAt var24 522)))
(assert (= "O" (CharAt var10 976)))
(assert (= "N" (CharAt var50 639)))
(assert (= "|" (CharAt var48 626)))
(assert (= "e" (CharAt var26 857)))
(assert (= "z" (CharAt var44 937)))
(assert (= "S" (CharAt var25 475)))
(assert (= "0" (CharAt var57 239)))
(assert (= "`" (CharAt var42 812)))
(assert (= "/" (CharAt var40 916)))
(assert (= "V" (CharAt var47 105)))
(assert (= "0" (CharAt var53 146)))
(assert (= "Z" (CharAt var8 234)))
(assert (= "C" (CharAt var37 950)))
(assert (= ";" (CharAt var8 656)))
(assert (= "U" (CharAt var14 382)))
(assert (= "x" (CharAt var54 438)))
(assert (= "'" (CharAt var23 177)))
(assert (= "M" (CharAt var48 391)))
(assert (= "T" (CharAt var42 465)))
(assert (= "D" (CharAt var12 133)))
(assert (= "~" (CharAt var17 280)))
(assert (= "d" (CharAt var23 998)))
(assert (= "<" (CharAt var47 854)))
(assert (= "g" (CharAt var52 185)))
(assert (= "H" (CharAt var57 79)))
(assert (= "8" (CharAt var53 444)))
(assert (= "Y" (CharAt var3 145)))
(assert (= "}" (CharAt var29 114)))
(assert (= "T" (CharAt var21 21)))
(assert (= "l" (CharAt var1 726)))
(assert (= "e" (CharAt var43 371)))
(assert (= "e" (CharAt var58 915)))
(assert (= "r" (CharAt var39 257)))
(assert (= "Z" (CharAt var59 722)))
(assert (= "D" (CharAt var31 847)))
(assert (= "&" (CharAt var35 221)))
(assert (= "Q" (CharAt var4 11)))
(assert (= "8" (CharAt var12 888)))
(assert (= "j" (CharAt var12 255)))
(assert (= "|" (CharAt var48 141)))
(assert (= "G" (CharAt var6 474)))
(assert (= "L" (CharAt var38 9)))
(assert (= "g" (CharAt var23 783)))
(assert (= "E" (CharAt var39 68)))
(assert (= "z" (CharAt var50 522)))
(assert (= "<" (CharAt var27 204)))
(assert (= "*" (CharAt var28 954)))
(assert (= "*" (CharAt var60 418)))
(assert (= "<" (CharAt var43 510)))
(assert (= "?" (CharAt var38 795)))
(assert (= "o" (CharAt var47 392)))
(assert (= "C" (CharAt var10 174)))
(assert (= "F" (CharAt var36 385)))
(assert (= "0" (CharAt var5 806)))
(assert (= "w" (CharAt var47 63)))
(assert (= "I" (CharAt var28 882)))
(assert (= "9" (CharAt var6 295)))
(assert (= "p" (CharAt var53 565)))
(assert (= "}" (CharAt var40 385)))
(assert (= "z" (CharAt var23 726)))
(assert (= "5" (CharAt var33 396)))
(assert (= "e" (CharAt var22 135)))
(assert (= "F" (CharAt var20 773)))
(assert (= "#" (CharAt var53 602)))
(assert (= ";" (CharAt var50 198)))
(assert (= "3" (CharAt var36 469)))
(assert (= "." (CharAt var49 999)))
(assert (= "=" (CharAt var16 443)))
(assert (= "^" (CharAt var42 62)))
(assert (= "!" (CharAt var6 362)))
(assert (= "5" (CharAt var41 707)))
(assert (= "%" (CharAt var57 518)))
(assert (= "#" (CharAt var51 688)))
(assert (= ")" (CharAt var38 235)))
(assert (= "x" (CharAt var13 808)))
(assert (= "C" (CharAt var29 357)))
(assert (= "I" (CharAt var11 391)))
(assert (= "3" (CharAt var33 216)))
(assert (= "Q" (CharAt var19 864)))
(assert (= "w" (CharAt var56 619)))
(assert (= "S" (CharAt var53 511)))
(assert (= "X" (CharAt var29 932)))
(assert (= "M" (CharAt var5 86)))
(assert (= "M" (CharAt var51 345)))
(assert (= "t" (CharAt var12 747)))
(assert (= ":" (CharAt var23 75)))
(assert (= "^" (CharAt var44 936)))
(assert (= ":" (CharAt var25 790)))
(assert (= "]" (CharAt var49 749)))
(assert (= "M" (CharAt var55 549)))
(assert (= "/" (CharAt var48 125)))
(assert (= "X" (CharAt var48 704)))
(assert (= "k" (CharAt var3 343)))
(assert (= "," (CharAt var51 467)))
(assert (= "]" (CharAt var36 798)))
(assert (= "5" (CharAt var53 205)))
(assert (= "\"" (CharAt var17 730)))
(assert (= "^" (CharAt var48 873)))
(assert (= "F" (CharAt var18 514)))
(assert (= "K" (CharAt var53 1)))
(assert (= "C" (CharAt var14 343)))
(assert (= "Z" (CharAt var19 315)))
(assert (= "1" (CharAt var45 495)))
(assert (= "r" (CharAt var45 596)))
(assert (= "L" (CharAt var43 705)))
(assert (= ")" (CharAt var4 76)))
(assert (= "y" (CharAt var16 325)))
(assert (= "R" (CharAt var24 613)))
(assert (= "^" (CharAt var18 923)))
(assert (= "=" (CharAt var35 498)))
(assert (= "g" (CharAt var25 359)))
(assert (= "+" (CharAt var0 270)))
(assert (= "s" (CharAt var4 261)))
(assert (= "w" (CharAt var24 487)))
(assert (= "B" (CharAt var14 607)))
(assert (= "O" (CharAt var25 676)))
(assert (= "U" (CharAt var49 100)))
(assert (= "$" (CharAt var43 969)))
(assert (= "t" (CharAt var36 624)))
(assert (= "l" (CharAt var34 543)))
(assert (= ")" (CharAt var37 777)))
(assert (= "L" (CharAt var13 133)))
(assert (= "y" (CharAt var26 597)))
(assert (= "w" (CharAt var10 267)))
(assert (= "z" (CharAt var29 403)))
(assert (= "$" (CharAt var46 760)))
(assert (= ">" (CharAt var7 53)))
(assert (= "`" (CharAt var48 433)))
(assert (= "]" (CharAt var35 163)))
(assert (= ")" (CharAt var56 105)))
(assert (= "F" (CharAt var48 529)))
(assert (= "R" (CharAt var42 950)))
(assert (= "F" (CharAt var4 138)))
(assert (= "B" (CharAt var10 880)))
(assert (= "D" (CharAt var49 534)))
(assert (= "o" (CharAt var36 693)))
(assert (= "d" (CharAt var30 131)))
(assert (= "R" (CharAt var38 775)))
(assert (= "?" (CharAt var52 909)))
(assert (= "," (CharAt var46 482)))
(assert (= "e" (CharAt var59 526)))
(assert (= "h" (CharAt var20 213)))
(assert (= ">" (CharAt var50 137)))
(assert (= "L" (CharAt var50 169)))
(assert (= "v" (CharAt var53 665)))
(assert (= "#" (CharAt var34 137)))
(assert (= "^" (CharAt var25 984)))
(assert (= "@" (CharAt var57 13)))
(assert (= "}" (CharAt var43 678)))
(assert (= "}" (CharAt var52 564)))
(assert (= "." (CharAt var26 933)))
(assert (= "g" (CharAt var36 963)))
(assert (= "7" (CharAt var8 218)))
(assert (= "L" (CharAt var6 931)))
(assert (= "N" (CharAt var27 957)))
(assert (= "H" (CharAt var16 619)))
(assert (= "Q" (CharAt var3 355)))
(assert (= "X" (CharAt var25 443)))
(assert (= "N" (CharAt var40 397)))
(assert (= "c" (CharAt var2 132)))
(assert (= "O" (CharAt var1 665)))
(assert (= "s" (CharAt var4 163)))
(assert (= "U" (CharAt var16 570)))
(assert (= "E" (CharAt var40 158)))
(assert (= "[" (CharAt var56 972)))
(assert (= "q" (CharAt var19 111)))
(assert (= "0" (CharAt var42 665)))
(assert (= "b" (CharAt var31 642)))
(assert (= "J" (CharAt var40 965)))
(assert (= "C" (CharAt var38 698)))
(assert (= "X" (CharAt var47 280)))
(assert (= "E" (CharAt var59 735)))
(assert (= "N" (CharAt var56 531)))
(assert (= "L" (CharAt var60 762)))
(assert (= "H" (CharAt var47 574)))
(assert (= "_" (CharAt var55 294)))
(assert (= "1" (CharAt var16 960)))
(assert (= "[" (CharAt var34 401)))
(assert (= "Z" (CharAt var6 127)))
(assert (= "&" (CharAt var56 79)))
(assert (= "0" (CharAt var15 312)))
(assert (= "+" (CharAt var48 597)))
(assert (= "\\" (CharAt var30 703)))
(assert (= ";" (CharAt var21 248)))
(assert (= "m" (CharAt var44 53)))
(assert (= "Z" (CharAt var60 968)))
(assert (= "T" (CharAt var16 260)))
(assert (= "p" (CharAt var58 130)))
(assert (= "J" (CharAt var9 640)))
(assert (= "\"" (CharAt var55 683)))
(assert (= "@" (CharAt var2 676)))
(assert (= "c" (CharAt var45 420)))
(assert (= "`" (CharAt var47 303)))
(assert (= "[" (CharAt var42 737)))
(assert (= "c" (CharAt var29 878)))
(assert (= "G" (CharAt var44 534)))
(assert (= "a" (CharAt var36 434)))
(assert (= "$" (CharAt var53 909)))
(assert (= "-" (CharAt var9 425)))
(assert (= "Q" (CharAt var11 490)))
(assert (= "B" (CharAt var53 933)))
(assert (= "*" (CharAt var23 273)))
(assert (= "c" (CharAt var8 537)))
(assert (= "X" (CharAt var30 919)))
(assert (= "k" (CharAt var43 481)))
(assert (= "w" (CharAt var28 26)))
(assert (= "8" (CharAt var58 480)))
(assert (= "n" (CharAt var17 371)))
(assert (= "l" (CharAt var54 292)))
(assert (= "a" (CharAt var56 415)))
(assert (= "w" (CharAt var10 963)))
(assert (= "=" (CharAt var18 290)))
(assert (= "X" (CharAt var47 951)))
(assert (= ">" (CharAt var22 195)))
(assert (= "J" (CharAt var29 740)))
(assert (= "J" (CharAt var28 244)))
(assert (= "|" (CharAt var9 584)))
(assert (= "Q" (CharAt var59 542)))
(assert (= "y" (CharAt var4 575)))
(assert (= "Y" (CharAt var7 699)))
(assert (= "*" (CharAt var1 261)))
(assert (= "[" (CharAt var57 243)))
(assert (= "c" (CharAt var28 767)))
(assert (= ";" (CharAt var53 646)))
(assert (= "h" (CharAt var49 120)))
(assert (= ">" (CharAt var55 807)))
(assert (= "5" (CharAt var35 247)))
(assert (= "3" (CharAt var0 413)))
(assert (= "2" (CharAt var35 112)))
(assert (= "j" (CharAt var51 370)))
(assert (= "O" (CharAt var59 955)))
(assert (= "^" (CharAt var8 535)))
(assert (= "E" (CharAt var46 934)))
(assert (= "k" (CharAt var4 881)))
(assert (= "L" (CharAt var31 725)))
(assert (= "&" (CharAt var17 684)))
(assert (= "#" (CharAt var33 971)))
(assert (= "'" (CharAt var28 264)))
(assert (= "4" (CharAt var53 883)))
(assert (= "^" (CharAt var14 710)))
(assert (= "'" (CharAt var28 197)))
(assert (= "o" (CharAt var10 201)))
(assert (= "h" (CharAt var46 24)))
(assert (= "Y" (CharAt var38 324)))
(assert (= "(" (CharAt var19 994)))
(assert (= ":" (CharAt var11 931)))
(assert (= "3" (CharAt var56 849)))
(assert (= "\"" (CharAt var40 72)))
(assert (= "G" (CharAt var5 845)))
(assert (= "I" (CharAt var12 331)))
(assert (= "X" (CharAt var2 211)))
(assert (= "M" (CharAt var19 160)))
(assert (= "s" (CharAt var1 731)))
(assert (= "q" (CharAt var0 631)))
(assert (= "'" (CharAt var60 690)))
(assert (= ";" (CharAt var25 118)))
(assert (= "V" (CharAt var19 818)))
(assert (= "]" (CharAt var36 233)))
(assert (= "B" (CharAt var8 255)))
(assert (= "B" (CharAt var23 833)))
(assert (= "]" (CharAt var17 353)))
(assert (= "p" (CharAt var22 928)))
(assert (= "<" (CharAt var19 654)))
(assert (= "f" (CharAt var7 732)))
(assert (= "A" (CharAt var15 139)))
(assert (= "T" (CharAt var6 484)))
(assert (= ")" (CharAt var42 149)))
(assert (= "4" (CharAt var47 626)))
(assert (= "+" (CharAt var5 415)))
(assert (= ":" (CharAt var16 783)))
(assert (= "j" (CharAt var44 60)))
(assert (= "0" (CharAt var4 87)))
(assert (= "6" (CharAt var47 922)))
(assert (= "d" (CharAt var14 87)))
(assert (= "U" (CharAt var15 812)))
(assert (= "o" (CharAt var3 180)))
(assert (= "y" (CharAt var19 97)))
(assert (= "N" (CharAt var30 321)))
(assert (= "D" (CharAt var30 820)))
(assert (= ";" (CharAt var9 767)))
(assert (= "@" (CharAt var15 757)))
(assert (= "C" (CharAt var7 973)))
(assert (= "@" (CharAt var37 719)))
(assert (= "!" (CharAt var37 909)))
(assert (= "C" (CharAt var37 437)))
(assert (= "1" (CharAt var32 336)))
(assert (= "_" (CharAt var32 590)))
(assert (= "V" (CharAt var15 444)))
(assert (= ")" (CharAt var32 776)))
(assert (= "j" (CharAt var20 221)))
(assert (= "A" (CharAt var24 177)))
(assert (= "\"" (CharAt var18 701)))
(assert (= "x" (CharAt var8 311)))
(assert (= "Y" (CharAt var53 658)))
(assert (= "-" (CharAt var1 743)))
(assert (= "i" (CharAt var1 931)))
(assert (= "i" (CharAt var28 771)))
(assert (= "S" (CharAt var45 164)))
(assert (= "_" (CharAt var57 766)))
(assert (= "}" (CharAt var29 451)))
(assert (= "z" (CharAt var53 496)))
(assert (= "?" (CharAt var27 38)))
(assert (= "e" (CharAt var35 562)))
(assert (= "p" (CharAt var36 746)))
(assert (= "t" (CharAt var40 966)))
(assert (= "/" (CharAt var12 560)))
(assert (= "_" (CharAt var26 738)))
(assert (= "t" (CharAt var30 601)))
(assert (= "8" (CharAt var31 993)))
(assert (= "v" (CharAt var34 989)))
(assert (= "[" (CharAt var32 171)))
(assert (= "3" (CharAt var19 25)))
(assert (= "|" (CharAt var57 372)))
(assert (= "]" (CharAt var44 991)))
(assert (= "9" (CharAt var53 548)))
(assert (= "^" (CharAt var8 997)))
(assert (= "," (CharAt var51 116)))
(assert (= "b" (CharAt var0 933)))
(assert (= "K" (CharAt var50 173)))
(assert (= "&" (CharAt var11 765)))
(assert (= "K" (CharAt var39 281)))
(assert (= "X" (CharAt var48 928)))
(assert (= "d" (CharAt var40 15)))
(assert (= "{" (CharAt var36 743)))
(assert (= "I" (CharAt var56 690)))
(assert (= "P" (CharAt var34 15)))
(assert (= "3" (CharAt var2 138)))
(assert (= "i" (CharAt var37 922)))
(assert (= "@" (CharAt var49 691)))
(assert (= "4" (CharAt var3 620)))
(assert (= "'" (CharAt var30 241)))
(assert (= "a" (CharAt var20 954)))
(assert (= "8" (CharAt var23 397)))
(assert (= "z" (CharAt var26 327)))
(assert (= "]" (CharAt var9 803)))
(assert (= "Y" (CharAt var34 477)))
(assert (= "Z" (CharAt var24 431)))
(assert (= "n" (CharAt var28 156)))
(assert (= "?" (CharAt var28 973)))
(assert (= "7" (CharAt var15 271)))
(assert (= "J" (CharAt var55 958)))
(assert (= "Z" (CharAt var8 192)))
(assert (= "!" (CharAt var0 59)))
(assert (= "D" (CharAt var5 555)))
(assert (= "\\" (CharAt var53 545)))
(assert (= "." (CharAt var31 347)))
(assert (= "#" (CharAt var49 164)))
(assert (= ")" (CharAt var22 188)))
(assert (= "w" (CharAt var23 50)))
(assert (= "v" (CharAt var6 350)))
(assert (= "5" (CharAt var22 943)))
(assert (= "*" (CharAt var29 208)))
(assert (= "I" (CharAt var38 440)))
(assert (= "F" (CharAt var13 81)))
(assert (= "S" (CharAt var27 316)))
(assert (= ";" (CharAt var27 673)))
(assert (= "<" (CharAt var27 851)))
(assert (= "?" (CharAt var49 969)))
(assert (= "." (CharAt var29 898)))
(assert (= "u" (CharAt var22 226)))
(assert (= "P" (CharAt var27 107)))
(assert (= "D" (CharAt var42 647)))
(assert (= "N" (CharAt var42 191)))
(assert (= "!" (CharAt var26 310)))
(assert (= "1" (CharAt var58 186)))
(assert (= "A" (CharAt var36 701)))
(assert (= "4" (CharAt var25 545)))
(assert (= "k" (CharAt var13 288)))
(assert (= "&" (CharAt var10 566)))
(assert (= "N" (CharAt var36 318)))
(assert (= "S" (CharAt var12 75)))
(assert (= "$" (CharAt var42 197)))
(assert (= "^" (CharAt var46 541)))
(assert (= "U" (CharAt var48 981)))
(assert (= "y" (CharAt var60 412)))
(assert (= ":" (CharAt var17 949)))
(assert (= "P" (CharAt var40 728)))
(assert (= "2" (CharAt var35 391)))
(assert (= "(" (CharAt var36 95)))
(assert (= "h" (CharAt var32 239)))
(assert (= "w" (CharAt var29 413)))
(assert (= "m" (CharAt var15 959)))
(assert (= "7" (CharAt var47 968)))
(assert (= "{" (CharAt var20 901)))
(assert (= "B" (CharAt var58 158)))
(assert (= "|" (CharAt var56 147)))
(assert (= "!" (CharAt var38 258)))
(assert (= "\"" (CharAt var19 783)))
(assert (= "j" (CharAt var13 926)))
(assert (= "+" (CharAt var31 703)))
(assert (= "`" (CharAt var58 494)))
(assert (= "g" (CharAt var39 470)))
(assert (= "(" (CharAt var39 852)))
(assert (= "%" (CharAt var27 169)))
(assert (= "_" (CharAt var9 3)))
(assert (= "6" (CharAt var32 375)))
(assert (= "s" (CharAt var34 430)))
(assert (= "Y" (CharAt var36 181)))
(assert (= "~" (CharAt var42 255)))
(assert (= ":" (CharAt var55 986)))
(assert (= "q" (CharAt var6 466)))
(assert (= "}" (CharAt var14 224)))
(assert (= "z" (CharAt var6 447)))
(assert (= "_" (CharAt var16 802)))
(assert (= "V" (CharAt var10 291)))
(assert (= "-" (CharAt var46 832)))
(assert (= "\"" (CharAt var44 672)))
(assert (= "g" (CharAt var30 520)))
(assert (= "w" (CharAt var31 36)))
(assert (= "K" (CharAt var5 82)))
(assert (= "@" (CharAt var31 480)))
(assert (= "*" (CharAt var22 37)))
(assert (= "N" (CharAt var14 119)))
(assert (= "n" (CharAt var8 903)))
(assert (= "M" (CharAt var41 743)))
(assert (= "o" (CharAt var0 554)))
(assert (= "m" (CharAt var44 298)))
(assert (= ">" (CharAt var58 379)))
(assert (= "B" (CharAt var37 356)))
(assert (= "_" (CharAt var27 650)))
(assert (= "}" (CharAt var43 136)))
(assert (= "E" (CharAt var32 80)))
(assert (= ")" (CharAt var43 517)))
(assert (= "." (CharAt var8 676)))
(assert (= "Z" (CharAt var18 29)))
(assert (= "O" (CharAt var16 385)))
(assert (= "^" (CharAt var31 978)))
(assert (= "j" (CharAt var51 643)))
(assert (= "V" (CharAt var57 912)))
(assert (= "2" (CharAt var4 954)))
(assert (= "Q" (CharAt var2 465)))
(assert (= "*" (CharAt var42 119)))
(assert (= "A" (CharAt var19 328)))
(assert (= "O" (CharAt var1 154)))
(assert (= "6" (CharAt var5 314)))
(assert (= "O" (CharAt var17 160)))
(assert (= "K" (CharAt var0 382)))
(assert (= "?" (CharAt var33 770)))
(assert (= "i" (CharAt var36 837)))
(assert (= "w" (CharAt var33 628)))
(assert (= "G" (CharAt var48 614)))
(assert (= "0" (CharAt var45 900)))
(assert (= "2" (CharAt var31 241)))
(assert (= "7" (CharAt var38 820)))
(assert (= "C" (CharAt var5 487)))
(assert (= "J" (CharAt var52 292)))
(assert (= "y" (CharAt var31 926)))
(assert (= "z" (CharAt var51 978)))
(assert (= "4" (CharAt var0 425)))
(assert (= "e" (CharAt var37 920)))
(assert (= "!" (CharAt var25 506)))
(assert (= "1" (CharAt var2 896)))
(assert (= "<" (CharAt var34 78)))
(assert (= "o" (CharAt var48 845)))
(assert (= "g" (CharAt var43 194)))
(assert (= "v" (CharAt var31 769)))
(assert (= "R" (CharAt var22 645)))
(assert (= "S" (CharAt var43 143)))
(assert (= "E" (CharAt var51 786)))
(assert (= "o" (CharAt var25 321)))
(assert (= "4" (CharAt var41 65)))
(assert (= "m" (CharAt var55 225)))
(assert (= "l" (CharAt var24 993)))
(assert (= "=" (CharAt var33 925)))
(assert (= "c" (CharAt var37 7)))
(assert (= "%" (CharAt var28 297)))
(assert (= "s" (CharAt var14 771)))
(assert (= "l" (CharAt var19 109)))
(assert (= "3" (CharAt var2 1000)))
(assert (= "F" (CharAt var53 343)))
(assert (= "S" (CharAt var39 651)))
(assert (= "M" (CharAt var60 595)))
(assert (= "U" (CharAt var47 823)))
(assert (= "B" (CharAt var27 84)))
(assert (= "2" (CharAt var29 722)))
(assert (= "0" (CharAt var7 990)))
(assert (= "{" (CharAt var1 535)))
(assert (= "v" (CharAt var7 893)))
(assert (= "S" (CharAt var8 646)))
(assert (= "J" (CharAt var34 644)))
(assert (= "X" (CharAt var19 397)))
(assert (= "x" (CharAt var5 94)))
(assert (= "c" (CharAt var46 680)))
(assert (= "l" (CharAt var51 128)))
(assert (= "M" (CharAt var1 175)))
(assert (= "?" (CharAt var32 690)))
(assert (= "~" (CharAt var58 751)))
(assert (= "h" (CharAt var32 670)))
(assert (= "5" (CharAt var53 360)))
(assert (= "{" (CharAt var6 284)))
(assert (= "Q" (CharAt var1 282)))
(assert (= "P" (CharAt var16 342)))
(assert (= "}" (CharAt var59 628)))
(assert (= ">" (CharAt var14 774)))
(assert (= "h" (CharAt var39 29)))
(assert (= "U" (CharAt var8 57)))
(assert (= "J" (CharAt var47 806)))
(assert (= ")" (CharAt var5 729)))
(assert (= "a" (CharAt var5 866)))
(assert (= "c" (CharAt var4 59)))
(assert (= "g" (CharAt var6 513)))
(assert (= "S" (CharAt var56 101)))
(assert (= "'" (CharAt var5 775)))
(assert (= "." (CharAt var8 753)))
(assert (= "(" (CharAt var17 610)))
(assert (= "," (CharAt var4 17)))
(assert (= "N" (CharAt var58 847)))
(assert (= "4" (CharAt var28 932)))
(assert (= "9" (CharAt var8 299)))
(assert (= "7" (CharAt var20 457)))
(assert (= "*" (CharAt var58 303)))
(assert (= "x" (CharAt var12 279)))
(assert (= "K" (CharAt var38 870)))
(assert (= "_" (CharAt var58 755)))
(assert (= "J" (CharAt var48 348)))
(assert (= "g" (CharAt var27 342)))
(assert (= "O" (CharAt var13 529)))
(assert (= "n" (CharAt var2 645)))
(assert (= "O" (CharAt var34 840)))
(assert (= "d" (CharAt var22 391)))
(assert (= "}" (CharAt var49 172)))
(assert (= "#" (CharAt var59 346)))
(assert (= "K" (CharAt var50 7)))
(assert (= "I" (CharAt var36 728)))
(assert (= "$" (CharAt var6 363)))
(assert (= "*" (CharAt var16 151)))
(assert (= "(" (CharAt var60 190)))
(assert (= "]" (CharAt var16 663)))
(assert (= "V" (CharAt var31 32)))
(assert (= "i" (CharAt var60 236)))
(assert (= "g" (CharAt var35 851)))
(assert (= "R" (CharAt var37 33)))
(assert (= "}" (CharAt var32 407)))
(assert (= "9" (CharAt var53 355)))
(assert (= "\\" (CharAt var48 586)))
(assert (= "$" (CharAt var19 589)))
(assert (= "6" (CharAt var16 264)))
(assert (= "B" (CharAt var19 189)))
(assert (= "q" (CharAt var18 294)))
(assert (= "`" (CharAt var59 231)))
(assert (= "o" (CharAt var42 893)))
(assert (= "G" (CharAt var4 288)))
(assert (= "y" (CharAt var16 335)))
(assert (= "J" (CharAt var20 898)))
(assert (= "9" (CharAt var36 933)))
(assert (= ";" (CharAt var51 644)))
(assert (= "6" (CharAt var40 276)))
(assert (= "J" (CharAt var41 831)))
(assert (= "(" (CharAt var33 985)))
(assert (= "^" (CharAt var14 57)))
(assert (= "Y" (CharAt var60 178)))
(check-sat)
(get-model)